c Result of efficient AIG-to-CNF conversion using package CNF
p cnf 396 1385
2 332 -187 0
2 332 3 -18 0
-2 -332 0
-2 -3 187 0
-2 18 187 0
-3 359 4 0
3 -359 0
3 -4 0
-4 5 7 8 9 0
4 -9 0
4 -5 0
4 -8 0
4 -7 0
-5 337 6 0
5 -337 0
5 -6 0
-6 338 339 340 0
6 -338 0
6 -340 0
6 -339 0
-7 333 334 0
7 -333 0
7 -334 0
-8 335 336 0
8 -335 0
8 -336 0
-9 10 11 0
9 -10 0
9 -11 0
-10 341 342 343 344 0
10 -344 0
10 -343 0
10 -341 0
10 -342 0
-11 12 13 15 16 0
11 -16 0
11 -12 0
11 -15 0
11 -13 0
-12 345 346 0
12 -345 0
12 -346 0
-13 347 14 0
13 -347 0
13 -14 0
-14 348 349 350 0
14 -348 0
14 -350 0
14 -349 0
-15 357 358 0
15 -357 0
15 -358 0
-16 351 352 17 0
16 -17 0
16 -352 0
16 -351 0
-17 353 354 355 356 0
17 -356 0
17 -355 0
17 -353 0
17 -354 0
-18 19 167 177 185 0
18 -185 0
18 -19 0
18 -167 0
18 -177 0
-19 -20 113 133 0
-19 106 113 133 0
19 -133 0
19 -113 0
19 20 -106 0
20 360 -21 0
-20 -360 0
-20 21 0
21 361 -22 0
21 -361 -41 0
-21 -361 41 0
-21 361 22 0
22 -362 -23 0
-22 362 0
-22 23 0
23 -363 -24 0
-23 363 0
-23 24 0
24 360 -28 0
24 361 -25 -28 0
-24 28 0
-24 -360 25 0
-24 -360 -361 0
25 362 -26 0
25 -362 -27 0
-25 -362 27 0
-25 362 26 0
26 -363 -366 0
26 363 -367 0
-26 363 367 0
-26 -363 366 0
27 -363 -364 0
27 363 -365 0
-27 363 365 0
-27 -363 364 0
28 -359 -29 36 0
-28 359 0
-28 29 0
-28 -36 0
29 -360 361 0
29 -361 -33 0
29 361 -30 0
-29 -361 33 0
-29 360 361 30 0
30 362 -31 0
30 -362 -32 0
-30 -362 32 0
-30 362 31 0
31 -363 -374 0
31 363 -375 0
-31 363 375 0
-31 -363 374 0
32 -363 -372 0
32 363 -373 0
-32 363 373 0
-32 -363 372 0
33 -362 -34 0
33 362 -35 0
-33 362 35 0
-33 -362 34 0
34 -363 -368 0
34 363 -369 0
-34 363 369 0
-34 -363 368 0
35 -363 -370 0
35 363 -371 0
-35 363 371 0
-35 -363 370 0
-36 358 37 0
36 -358 0
36 -37 0
-37 332 357 6 38 0
37 -332 0
37 -38 0
37 -6 0
37 -357 0
-38 10 12 16 39 0
38 -39 0
38 -10 0
38 -16 0
38 -12 0
-39 13 40 0
39 -13 0
39 -40 0
-40 335 336 337 7 0
40 -7 0
40 -337 0
40 -335 0
40 -336 0
41 362 -42 0
41 -362 -67 0
-41 -362 67 0
-41 362 42 0
42 363 -43 0
42 -363 -57 0
-42 -363 57 0
-42 363 43 0
43 -360 36 -44 51 0
-43 -36 0
-43 -51 0
-43 360 0
-43 44 0
-44 359 -361 45 0
-44 359 361 48 0
44 -359 0
44 -361 -45 0
44 361 -48 0
45 -362 -46 0
45 362 -47 0
-45 362 47 0
-45 -362 46 0
46 -363 -377 0
46 363 -378 0
-46 363 378 0
-46 -363 377 0
47 -363 -379 0
47 363 -380 0
-47 363 380 0
-47 -363 379 0
48 -362 -49 0
48 362 -50 0
-48 362 50 0
-48 -362 49 0
49 -363 -381 0
49 363 -382 0
-49 363 382 0
-49 -363 381 0
50 -363 -383 0
50 363 -384 0
-50 363 384 0
-50 -363 383 0
51 -359 52 54 0
51 -359 53 54 0
-51 359 0
-51 -54 0
-51 -52 -53 0
52 363 -364 0
-52 -363 0
-52 364 0
53 -361 362 0
-53 361 0
-53 -362 0
54 361 -362 -56 0
54 361 362 -55 0
-54 -361 0
-54 -362 56 0
-54 362 55 0
55 -363 -367 0
55 363 -368 0
-55 363 368 0
-55 -363 367 0
56 -363 -365 0
56 363 -366 0
-56 363 366 0
-56 -363 365 0
57 -361 36 -58 0
-57 361 0
-57 -36 0
-57 58 0
-58 -359 65 0
-58 359 59 62 0
58 359 -59 0
58 -359 -65 0
58 359 -62 0
59 -360 -362 -61 0
59 -360 362 -60 0
-59 360 0
-59 -362 61 0
-59 362 60 0
60 -363 -380 0
60 363 -381 0
-60 363 381 0
-60 -363 380 0
61 -363 -378 0
61 363 -379 0
-61 363 379 0
-61 -363 378 0
62 360 -362 -64 0
62 360 362 -63 0
-62 -360 0
-62 -362 64 0
-62 362 63 0
63 -363 -388 0
63 363 -389 0
-63 363 389 0
-63 -363 388 0
64 -363 -386 0
64 363 -387 0
-64 363 387 0
-64 -363 386 0
-65 360 66 0
-65 -360 27 0
-65 -360 53 0
65 360 -66 0
65 -360 -27 -53 0
-66 -362 35 0
-66 362 32 0
66 362 -32 0
66 -362 -35 0
-67 68 85 0
-67 -363 68 0
67 -68 0
67 363 -85 0
68 360 -69 -84 0
68 -360 -78 -84 0
-68 84 0
-68 -360 78 0
-68 360 69 0
69 -359 -70 0
69 359 73 -75 0
-69 359 75 0
-69 -359 70 0
-69 359 -73 0
70 -361 -30 0
70 361 -71 0
-70 361 71 0
-70 -361 30 0
71 362 -61 0
71 -362 -72 0
-71 -362 72 0
-71 362 61 0
72 -363 -376 0
72 363 -377 0
-72 363 377 0
-72 -363 376 0
73 -361 362 74 0
73 -361 -362 63 0
-73 361 0
-73 -362 -63 0
-73 362 -74 0
74 -363 -390 0
74 363 -391 0
-74 363 391 0
-74 -363 390 0
-75 361 -362 76 0
-75 361 362 77 0
75 -361 0
75 -362 -76 0
75 362 -77 0
76 -363 -392 0
76 363 -393 0
-76 363 393 0
-76 -363 392 0
77 -363 -394 0
77 363 -395 0
-77 363 395 0
-77 -363 394 0
78 -359 -79 0
78 359 80 -82 0
-78 359 82 0
-78 -359 79 0
-78 359 -80 0
79 -361 -25 0
79 361 -33 0
-79 361 33 0
-79 -361 25 0
80 -361 362 81 0
80 -361 -362 60 0
-80 361 0
-80 -362 -60 0
-80 362 -81 0
81 -363 -382 0
81 363 -383 0
-81 363 383 0
-81 -363 382 0
-82 361 -362 83 0
-82 361 362 64 0
82 -361 0
82 -362 -83 0
82 362 -64 0
-83 363 385 0
-83 -363 384 0
83 -363 -384 0
83 363 -385 0
84 358 -363 37 0
-84 -37 0
-84 363 0
-84 -358 0
85 -362 36 -86 96 0
-85 -36 0
-85 -96 0
-85 362 0
-85 86 0
-86 359 -361 87 0
-86 359 361 91 0
86 -359 0
86 -361 -87 0
86 361 -91 0
87 -360 -88 0
87 360 89 -90 0
-87 360 90 0
-87 -360 88 0
-87 360 -89 0
88 -362 -47 0
88 362 -49 0
-88 362 49 0
-88 -362 47 0
89 -362 363 388 0
89 -362 -363 387 0
-89 362 0
-89 -363 -387 0
-89 363 -388 0
-90 362 -363 389 0
-90 362 363 390 0
90 -362 0
90 -363 -389 0
90 363 -390 0
91 -360 -92 0
91 360 94 -95 0
-91 360 95 0
-91 -360 92 0
-91 360 -94 0
92 -362 -50 0
92 362 -93 0
-92 362 93 0
-92 -362 50 0
93 -363 -385 0
93 363 -386 0
-93 363 386 0
-93 -363 385 0
94 -362 363 392 0
94 -362 -363 391 0
-94 362 0
-94 -363 -391 0
-94 363 -392 0
-95 362 -363 393 0
-95 362 363 394 0
95 -362 0
95 -363 -393 0
95 363 -394 0
96 -359 361 101 0
96 -359 -361 97 0
-96 359 0
-96 -361 -97 0
-96 361 -101 0
97 -360 -98 0
97 360 99 -100 0
-97 360 100 0
-97 -360 98 0
-97 360 -99 0
98 362 -56 0
98 -362 363 -364 0
-98 -362 -363 0
-98 362 56 0
-98 -362 364 0
99 -362 363 372 0
99 -362 -363 371 0
-99 362 0
-99 -363 -371 0
-99 363 -372 0
-100 362 -363 373 0
-100 362 363 374 0
100 -362 0
100 -363 -373 0
100 363 -374 0
101 -360 -102 0
101 360 -104 0
-101 360 104 0
-101 -360 102 0
102 -362 -55 0
102 362 -103 0
-102 362 103 0
-102 -362 55 0
103 -363 -369 0
103 363 -370 0
-103 363 370 0
-103 -363 369 0
104 362 -46 0
104 -362 -105 0
-104 -362 105 0
-104 362 46 0
105 -363 -375 0
105 363 -376 0
-105 363 376 0
-105 -363 375 0
106 -388 -107 0
-106 388 0
-106 107 0
107 360 -108 0
-107 -360 0
-107 108 0
108 361 -109 0
108 -361 -112 0
-108 -361 112 0
-108 361 109 0
109 362 -110 0
109 -362 -111 0
-109 -362 111 0
-109 362 110 0
110 -357 -363 0
110 -356 363 0
-110 356 363 0
-110 357 -363 0
111 -359 -363 0
111 -358 363 0
-111 358 363 0
-111 359 -363 0
-112 361 362 -363 0
-112 360 362 363 0
112 -362 0
112 -360 363 0
112 -361 -363 0
-113 -114 123 0
-113 118 123 0
113 -123 0
113 114 -118 0
114 360 -115 0
-114 -360 0
-114 115 0
115 361 -116 0
115 -361 -117 0
-115 -361 117 0
-115 361 116 0
116 362 -23 0
116 -362 -42 0
-116 -362 42 0
-116 362 23 0
117 362 -67 0
-117 -362 0
-117 67 0
118 -390 -119 0
-118 390 0
-118 119 0
119 360 -120 0
-119 -360 0
-119 120 0
120 361 -121 0
120 -361 362 -363 0
-120 -361 -362 0
-120 361 121 0
-120 -361 363 0
121 362 -111 0
121 -362 -122 0
-121 -362 122 0
-121 362 111 0
122 -361 -363 0
122 -360 363 0
-122 360 363 0
-122 361 -363 0
123 124 -130 0
-123 -124 0
-123 130 0
124 -386 3 -125 0
-124 386 0
-124 -3 0
-124 125 0
125 360 -127 0
125 -360 361 -126 0
-125 -360 -361 0
-125 360 127 0
-125 -360 126 0
126 362 -363 0
-126 -362 0
-126 363 0
127 -361 -121 0
127 361 -128 0
-127 361 128 0
-127 -361 121 0
128 -362 -110 0
128 362 -129 0
-128 362 129 0
-128 -362 110 0
129 -355 -363 0
129 -354 363 0
-129 354 363 0
-129 355 -363 0
130 360 -131 0
130 -360 -132 0
-130 -360 132 0
-130 360 131 0
131 -361 -116 0
-131 361 0
-131 116 0
132 361 -117 0
-132 -361 0
-132 117 0
-133 134 153 160 0
-133 134 -155 160 0
133 -160 0
133 -134 0
133 -153 155 0
-134 -140 145 0
-134 135 -148 0
-134 135 145 0
-134 -140 -148 0
134 -135 140 0
134 -145 148 0
135 360 -136 0
-135 -360 0
-135 136 0
136 361 -137 0
-136 -361 0
-136 137 0
137 362 -138 0
137 -362 -139 0
-137 -362 139 0
-137 362 138 0
138 363 -24 0
138 -363 -43 0
-138 -363 43 0
-138 363 24 0
139 363 -57 0
139 -363 -85 0
-139 -363 85 0
-139 363 57 0
140 -391 -141 0
-140 391 0
-140 141 0
141 360 -142 0
-141 -360 0
-141 142 0
142 361 -143 0
-142 -361 0
-142 143 0
143 -361 -362 0
143 362 -144 0
143 -362 -363 0
-143 362 144 0
-143 361 -362 363 0
144 -360 -363 0
144 -359 363 0
-144 359 363 0
-144 360 -363 0
145 360 -146 0
-145 -360 0
-145 146 0
146 361 -147 0
146 -361 362 -139 0
-146 -361 -362 0
-146 361 147 0
-146 -361 139 0
147 -362 -138 0
-147 362 0
-147 138 0
148 -389 -149 0
-148 389 0
-148 149 0
149 360 -150 0
-149 -360 0
-149 150 0
-150 -361 -362 0
-150 361 151 0
-150 -361 -363 0
150 361 -151 0
150 -361 362 363 0
151 -362 -144 0
151 362 -152 0
-151 362 152 0
-151 -362 144 0
152 -358 -363 0
152 -357 363 0
-152 357 363 0
-152 358 -363 0
153 360 -154 0
-153 -360 0
-153 154 0
154 -361 -137 0
-154 361 0
-154 137 0
155 -387 -156 0
-155 387 0
-155 156 0
156 360 -157 0
-156 -360 0
-156 157 0
157 -361 -362 0
157 361 -158 0
157 -361 -144 0
-157 361 158 0
-157 -361 362 144 0
158 -362 -152 0
158 362 -159 0
-158 362 159 0
-158 -362 152 0
159 -356 -363 0
159 -355 363 0
-159 355 363 0
-159 356 -363 0
-160 -163 165 0
-160 161 -164 0
-160 -163 -164 0
-160 161 165 0
160 164 -165 0
160 -161 163 0
161 360 -162 0
-161 -360 0
-161 162 0
162 361 -41 0
-162 -361 0
-162 41 0
163 360 361 -362 -392 0
-163 -360 0
-163 392 0
-163 362 0
-163 -361 0
164 360 -132 0
-164 -360 0
-164 132 0
165 -394 -166 0
-165 394 0
-165 166 0
166 360 361 362 -363 0
-166 363 0
-166 -362 0
-166 -360 0
-166 -361 0
-167 20 168 169 0
-167 -106 168 169 0
167 -169 0
167 -168 0
167 -20 106 0
-168 -135 -165 0
-168 140 164 0
-168 -135 164 0
-168 140 -165 0
168 135 -140 0
168 -164 165 0
-169 114 -170 -171 0
-169 -118 170 171 0
-169 114 170 171 0
-169 -118 -170 -171 0
169 170 -171 0
169 -170 171 0
169 -114 118 0
170 -360 -115 0
-170 360 0
-170 115 0
171 -382 -172 0
-171 382 0
-171 172 0
172 -360 -120 0
172 360 -173 0
-172 360 173 0
-172 -360 120 0
173 -361 -128 0
173 361 -174 0
-173 361 174 0
-173 -361 128 0
174 362 -175 0
174 -362 -176 0
-174 -362 176 0
-174 362 175 0
175 -351 -363 0
175 -350 363 0
-175 350 363 0
-175 351 -363 0
176 -353 -363 0
176 -352 363 0
-176 352 363 0
-176 353 -363 0
177 178 -183 0
177 -178 183 0
-177 -178 -183 0
-177 178 183 0
178 -385 -179 0
-178 385 0
-178 179 0
179 360 -180 0
-179 -360 0
-179 180 0
180 -361 -151 0
180 361 -181 0
-180 361 181 0
-180 -361 151 0
181 -362 -159 0
181 362 -182 0
-181 362 182 0
-181 -362 159 0
182 -354 -363 0
182 -353 363 0
-182 353 363 0
-182 354 -363 0
183 360 -184 0
-183 -360 0
-183 184 0
184 -361 -147 0
-184 361 0
-184 147 0
-185 -145 186 0
-185 148 186 0
185 -186 0
185 145 -148 0
-186 -153 163 0
-186 155 -161 0
-186 155 163 0
-186 -153 -161 0
186 153 -155 0
186 161 -163 0
-187 188 225 249 296 0
187 -296 0
187 -188 0
187 -249 0
187 -225 0
-188 189 203 0
-188 359 -184 203 0
188 -203 0
188 -359 -189 0
188 184 -189 0
189 190 14 -191 199 0
-189 -199 0
-189 -190 0
-189 191 0
-189 -14 0
-190 343 344 0
190 -343 0
190 -344 0
191 -360 -377 0
191 -377 -192 0
-191 377 0
-191 360 192 0
192 361 -193 0
192 -361 -196 0
-192 -361 196 0
-192 361 193 0
193 362 -194 0
193 -362 -195 0
-193 -362 195 0
-193 362 194 0
194 -346 -363 0
194 -345 363 0
-194 345 363 0
-194 346 -363 0
195 -348 -363 0
195 -347 363 0
-195 347 363 0
-195 348 -363 0
196 362 -197 0
196 -362 -198 0
-196 -362 198 0
-196 362 197 0
197 -350 -363 0
197 -349 363 0
-197 349 363 0
-197 350 -363 0
198 -352 -363 0
198 -351 363 0
-198 351 363 0
-198 352 -363 0
-199 16 200 201 202 0
199 -202 0
199 -16 0
199 -201 0
199 -200 0
-200 347 359 12 15 0
200 -347 0
200 -15 0
200 -12 0
200 -359 0
-201 341 342 6 0
201 -6 0
201 -342 0
201 -341 0
-202 360 40 0
-202 40 -180 0
202 -40 0
202 -360 180 0
-203 204 -212 0
-203 204 223 0
-203 204 214 0
203 -204 0
203 212 -214 -223 0
204 359 4 -205 0
204 4 145 -205 0
-204 205 0
-204 -4 0
-204 -359 -145 0
205 359 -373 -206 0
205 -359 -373 -149 0
-205 373 0
-205 359 206 0
-205 -359 149 0
-206 360 208 0
-206 -360 207 0
206 -360 -207 0
206 360 -208 0
207 -361 -181 0
207 361 -196 0
-207 361 196 0
-207 -361 181 0
208 -361 -193 0
208 361 -209 0
-208 361 209 0
-208 -361 193 0
209 362 -210 0
209 -362 -211 0
-209 -362 211 0
-209 362 210 0
210 -342 -363 0
210 -341 363 0
-210 341 363 0
-210 342 -363 0
211 -344 -363 0
211 -343 363 0
-211 343 363 0
-211 344 -363 0
212 4 -161 -213 0
-212 -4 0
-212 161 0
-212 213 0
-213 359 360 0
213 -359 0
213 -360 0
-214 359 -360 221 0
-214 359 360 215 0
214 -359 0
214 -360 -221 0
214 360 -215 0
215 361 -216 0
215 -361 -219 0
-215 -361 219 0
-215 361 216 0
216 362 -217 0
216 -362 -218 0
-216 -362 218 0
-216 362 217 0
217 -345 -363 0
217 -344 363 0
-217 344 363 0
-217 345 -363 0
218 -347 -363 0
218 -346 363 0
-218 346 363 0
-218 347 -363 0
219 -362 -175 0
219 362 -220 0
-219 362 220 0
-219 -362 175 0
220 -349 -363 0
220 -348 363 0
-220 348 363 0
-220 349 -363 0
221 -361 -109 0
221 361 -222 0
-221 361 222 0
-221 -361 109 0
222 -362 -129 0
222 362 -176 0
-222 362 176 0
-222 -362 129 0
223 359 -376 4 0
223 -376 4 -224 0
-223 -4 0
-223 376 0
-223 -359 224 0
224 360 361 -362 0
-224 362 0
-224 -361 0
-224 -360 0
-225 -3 230 0
-225 -226 -229 230 0
-225 226 229 230 0
225 -230 0
225 3 226 -229 0
225 3 -226 229 0
226 -384 -227 0
-226 384 0
-226 227 0
227 -360 -228 0
227 360 -221 0
-227 360 221 0
-227 -360 228 0
228 361 -362 0
228 -360 361 363 0
-228 -361 0
-228 362 -363 0
-228 360 362 0
229 -360 -162 0
229 360 -361 -22 0
-229 -360 162 0
-229 360 22 0
-229 360 361 0
230 -231 248 0
230 -231 247 0
-230 231 0
-230 -247 -248 0
231 -359 -232 -241 0
231 359 -233 -241 0
-231 241 0
-231 -359 232 0
-231 359 233 0
232 -360 -150 0
232 360 -207 0
-232 -360 150 0
-232 360 207 0
233 -360 -208 0
233 360 -234 0
-233 360 234 0
-233 -360 208 0
234 361 -235 0
234 -361 -238 0
-234 -361 238 0
-234 361 235 0
235 362 -236 0
235 -362 -237 0
-235 -362 237 0
-235 362 236 0
236 -334 -363 0
236 -333 363 0
-236 333 363 0
-236 334 -363 0
237 -336 -363 0
237 -335 363 0
-237 335 363 0
-237 336 -363 0
238 362 -239 0
238 -362 -240 0
-238 -362 240 0
-238 362 239 0
239 -338 -363 0
239 -337 363 0
-239 337 363 0
-239 338 -363 0
240 -340 -363 0
240 -339 363 0
-240 339 363 0
-240 340 -363 0
241 -365 242 245 0
-241 365 0
-241 -242 0
-241 -245 0
-242 12 243 244 0
242 -12 0
242 -243 0
242 -244 0
-243 351 352 10 0
243 -10 0
243 -352 0
243 -351 0
-244 338 339 7 13 0
244 -338 0
244 -13 0
244 -7 0
244 -339 0
-245 340 15 17 246 0
245 -340 0
245 -246 0
245 -17 0
245 -15 0
-246 335 336 337 0
246 -335 0
246 -337 0
246 -336 0
247 337 -359 6 9 0
-247 -337 0
-247 -9 0
-247 -6 0
-247 359 0
248 -360 -146 0
-248 360 0
-248 146 0
-249 250 267 269 275 0
249 -275 0
249 -269 0
249 -250 0
249 -267 0
-250 251 259 0
250 -251 0
250 -259 0
251 359 4 -252 0
251 4 20 -252 0
-251 252 0
-251 -4 0
-251 -359 -20 0
252 359 -372 -253 0
252 -359 -372 -107 0
-252 372 0
-252 359 253 0
-252 -359 107 0
-253 360 255 0
-253 -360 254 0
253 -360 -254 0
253 360 -255 0
254 361 -219 0
254 -361 -222 0
-254 -361 222 0
-254 361 219 0
255 -361 -216 0
255 361 -256 0
-255 361 256 0
-255 -361 216 0
256 362 -257 0
256 -362 -258 0
-256 -362 258 0
-256 362 257 0
257 -341 -363 0
257 -340 363 0
-257 340 363 0
-257 341 -363 0
258 -343 -363 0
258 -342 363 0
-258 342 363 0
-258 343 -363 0
259 359 4 -260 0
259 4 135 -260 0
-259 260 0
-259 -4 0
-259 -359 -135 0
260 359 -375 -261 0
260 -359 -375 -141 0
-260 375 0
-260 359 261 0
-260 -359 141 0
-261 360 264 0
-261 -360 262 0
261 -360 -262 0
261 360 -264 0
262 -361 -158 0
262 361 -263 0
-262 361 263 0
-262 -361 158 0
263 -362 -182 0
263 362 -198 0
-263 362 198 0
-263 -362 182 0
264 361 -265 0
264 -361 -266 0
-264 -361 266 0
-264 361 265 0
265 -362 -194 0
265 362 -211 0
-265 362 211 0
-265 -362 194 0
266 362 -195 0
266 -362 -197 0
-266 -362 197 0
-266 362 195 0
267 -368 -268 -227 229 0
-267 227 0
-267 -229 0
-267 368 0
-267 268 0
268 -359 4 0
-268 359 0
-268 -4 0
269 -371 268 -270 0
269 -371 153 -270 0
-269 270 0
-269 371 0
-269 -153 -268 0
270 360 4 -272 0
270 4 -271 -272 0
-270 272 0
-270 -4 0
-270 -360 271 0
271 -361 -263 0
271 361 -266 0
-271 361 266 0
-271 -361 263 0
272 -156 -273 0
272 359 -273 0
-272 273 0
-272 -359 156 0
-273 361 213 274 0
-273 -361 213 265 0
273 -213 0
273 361 -274 0
273 -361 -265 0
274 -362 -210 0
274 362 -240 0
-274 362 240 0
-274 -362 210 0
-275 276 287 0
-275 -247 -286 287 0
275 -287 0
275 -276 286 0
275 247 -276 0
276 -359 -277 -285 0
276 359 -278 -285 0
-276 285 0
-276 -359 277 0
-276 359 278 0
277 -360 -108 0
277 360 -254 0
-277 360 254 0
-277 -360 108 0
278 -360 -255 0
278 360 -279 282 0
-278 360 -282 0
-278 -360 255 0
-278 360 279 0
-279 361 -362 281 0
-279 361 362 280 0
279 -361 0
279 -362 -281 0
279 362 -280 0
280 -333 -363 0
280 -332 363 0
-280 332 363 0
-280 333 -363 0
281 -335 -363 0
281 -334 363 0
-281 334 363 0
-281 335 -363 0
282 -361 -362 284 0
282 -361 362 283 0
-282 361 0
-282 -362 -284 0
-282 362 -283 0
283 -337 -363 0
283 -336 363 0
-283 336 363 0
-283 337 -363 0
284 -339 -363 0
284 -338 363 0
-284 338 363 0
-284 339 -363 0
285 -364 242 245 0
-285 364 0
-285 -242 0
-285 -245 0
286 -360 -21 0
-286 360 0
-286 21 0
-287 288 295 0
-287 -247 -294 295 0
287 -295 0
287 -288 294 0
287 247 -288 0
288 -367 245 -289 292 0
-288 -292 0
-288 367 0
-288 -245 0
-288 289 0
-289 359 -360 264 0
-289 359 360 290 0
289 -359 0
289 -360 -264 0
289 360 -290 0
290 -361 -274 0
290 361 -291 0
-290 361 291 0
-290 -361 274 0
291 362 -237 0
291 -362 -239 0
-291 -362 239 0
-291 362 237 0
-292 359 242 0
-292 242 -293 0
292 -242 0
292 -359 293 0
293 -360 -142 0
293 360 -262 0
-293 360 262 0
-293 -360 142 0
294 -360 -136 0
-294 360 0
-294 136 0
295 -383 3 -293 294 0
-295 293 0
-295 -294 0
-295 383 0
-295 -3 0
-296 297 298 299 305 0
296 -305 0
296 -299 0
296 -297 0
296 -298 0
297 -381 3 -232 248 0
-297 232 0
-297 -248 0
-297 381 0
-297 -3 0
298 -370 -125 123 -268 0
-298 268 0
-298 370 0
-298 125 0
-298 -123 0
299 359 4 -300 0
299 4 114 -300 0
-299 300 0
-299 -4 0
-299 -359 -114 0
300 359 -374 -301 0
300 -359 -374 -119 0
-300 374 0
-300 359 301 0
-300 -359 119 0
-301 360 302 0
-301 -360 173 0
301 -360 -173 0
301 360 -302 0
302 361 -303 0
302 -361 -304 0
-302 -361 304 0
-302 361 303 0
303 -362 -217 0
303 362 -258 0
-303 362 258 0
-303 -362 217 0
304 362 -218 0
304 -362 -220 0
-304 -362 220 0
-304 362 218 0
-305 306 315 322 328 0
305 -322 0
305 -328 0
305 -306 0
305 -315 0
-306 307 312 0
-306 307 -311 0
-306 -4 307 0
306 -307 0
306 4 311 -312 0
307 -3 -308 310 0
307 286 -308 310 0
-307 -310 0
-307 308 0
-307 3 -286 0
308 -380 -277 309 0
-308 380 0
-308 277 0
-308 -309 0
-309 343 344 40 0
309 -40 0
309 -344 0
309 -343 0
-310 359 11 201 0
310 -201 0
310 -11 0
310 -359 0
311 -164 -213 0
311 359 -131 -213 0
-311 213 0
-311 -359 164 0
-311 131 164 0
312 359 -378 -313 0
312 -359 -378 -166 0
-312 378 0
-312 -359 166 0
-312 359 313 0
313 -360 -127 0
313 360 -314 0
-313 360 314 0
-313 -360 127 0
314 -361 -174 0
314 361 -304 0
-314 361 304 0
-314 -361 174 0
315 247 -316 -320 0
315 170 -316 -320 0
-315 320 0
-315 316 0
-315 -170 -247 0
-316 359 -360 302 0
-316 359 360 317 0
316 -359 0
316 -360 -302 0
316 360 -317 0
317 361 -318 0
317 -361 -319 0
-317 -361 319 0
-317 361 318 0
318 362 -281 0
318 -362 -283 0
-318 -362 283 0
-318 362 281 0
319 -362 -257 0
319 362 -284 0
-319 362 284 0
-319 -362 257 0
320 359 242 -321 0
320 -172 242 -321 0
-320 321 0
-320 -242 0
-320 -359 172 0
321 -366 245 0
-321 366 0
-321 -245 0
-322 -130 326 0
-322 124 -323 0
-322 -130 -323 0
-322 124 326 0
322 323 -326 0
322 -124 130 0
323 -360 -154 324 325 0
-323 -325 0
-323 360 0
-323 -324 0
-323 154 0
-324 17 40 0
324 -17 0
324 -40 0
-325 6 14 200 243 0
325 -243 0
325 -6 0
325 -200 0
325 -14 0
326 -360 324 -327 0
326 -271 324 -327 0
-326 327 0
-326 -324 0
-326 360 271 0
327 360 -379 325 0
327 -379 -157 325 0
-327 -325 0
-327 379 0
-327 -360 157 0
328 183 -329 -330 331 0
-328 -183 0
-328 -331 0
-328 330 0
-328 329 0
-329 -361 209 213 0
-329 361 213 238 0
329 -213 0
329 361 -238 0
329 -361 -209 0
330 360 -369 309 0
330 -369 -192 309 0
-330 -309 0
-330 369 0
-330 -360 192 0
-331 359 11 201 0
-331 11 -179 201 0
331 -201 0
331 -11 0
331 -359 179 0
-396 0
2 0

